 INCAR:
 POTCAR:    PAW Ni

 POTCAR:    PAW Ni
   VRHFIN =Ni:

   TITEL  = PAW Ni
   POMASS =   58.690; ZVAL   =   10.000    mass and valenz
   ENMAX  =  269.561; ENMIN  =  202.171 eV
   QCUT   =   -4.451; QGAM   =    8.902    optimization parameters

   Description
     l     E      TYP  RCUT    TYP  RCUT
     2   .000     23  2.300
     2   .000     23  2.300
     0   .000     23  2.300
     0   .000     23  2.300
     1  -.200     23  2.300
     1   .000     23  2.300
     3   .000      7   .000

  PAW Ni                                :

 POSCAR: fcc (100) surface
  positions in cartesian coordinates

 ion  position               nearest neighbor table
   1  0.000  0.000  0.000-   2 2.50   2 2.50   2 2.50   2 2.50
   2  0.500  0.500  0.100-   1 2.50   3 2.50   1 2.50   3 2.50   1 2.50   3 2.50   1 2.50   3 2.50

   3  0.000  0.000  0.200-   4 2.50   4 2.50   4 2.50   4 2.50   2 2.50   2 2.50   2 2.50   2 2.50

[...]

   5  0.000  0.000  0.400-   4 2.50   4 2.50   4 2.50   4 2.50

  LATTYP: Found a simple tetragonal cell.
 ALAT       =     2.4960869376
 C/A-ratio  =     7.0710678119

  Lattice vectors:

 A1 = (   1.7650000000,   1.7650000000,   0.0000000000)
 A2 = (  -1.7650000000,   1.7650000000,   0.0000000000)
 A3 = (   0.0000000000,   0.0000000000,  17.6500000000)
 Subroutine PRICEL returns:
 Original cell was already a primitive cell.

Analysis of symmetry for initial positions (statically):

 Routine SETGRP: Setting up the symmetry group for a
 simple tetragonal supercell.

 Subroutine GETGRP returns: Found 16 space group operations
 (whereof  8 operations were pure point group operations)
 out of a pool of 16 trial point group operations.

The static configuration has the point symmetry C_4v.
 The point group associated with its full space group is D_4h.

Analysis of symmetry for dynamics (positions and initial velocities):

 Subroutine DYNSYM returns: Found 16 space group operations
 (whereof  8 operations were pure point group operations)
 out of a pool of 16 trial space group operations
 (whereof  8 operations were pure point group operations)
 and found also     1 'primitive' translations

The dynamic configuration has the point symmetry C_4v.
 The point group associated with its full space group is D_4h.

Analysis of constrained symmetry for selective dynamics:

 Subroutine DYNSYM returns: Found  8 space group operations
 (whereof  8 operations were pure point group operations)
 out of a pool of 16 trial space group operations
 (whereof  8 operations were pure point group operations)
 and found also     1 'primitive' translations

The constrained configuration has the point symmetry C_4v.

Analysis of magnetic symmetry:

 Subroutine MAGSYM returns: Found  8 space group operations
 (whereof  8 operations were pure point group operations)
 out of a pool of  8 trial space group operations
 (whereof  8 operations were pure point group operations)
 and found also     1 'primitive' translations

The magnetic configuration has the point symmetry C_4v.

 KPOINTS: K-Points

Automatic generation of k-mesh.

 Subroutine IBZKPT returns following result:

 Found     15 irreducible k-points:

 Following reciprocal coordinates:
            Coordinates               Weight
  0.000000  0.000000  0.000000      1.000000
  0.111111  0.000000  0.000000      4.000000
  0.222222  0.000000  0.000000      4.000000
  0.333333  0.000000  0.000000      4.000000
  0.444444  0.000000  0.000000      4.000000
  0.111111  0.111111  0.000000      4.000000
  0.222222  0.111111  0.000000      8.000000
  0.333333  0.111111  0.000000      8.000000
  0.444444  0.111111  0.000000      8.000000
  0.222222  0.222222  0.000000      4.000000
  0.333333  0.222222  0.000000      8.000000
  0.444444  0.222222  0.000000      8.000000
  0.333333  0.333333  0.000000      4.000000
  0.444444  0.333333  0.000000      8.000000
  0.444444  0.444444  0.000000      4.000000

 Following cartesian coordinates:
            Coordinates               Weight
  0.000000  0.000000  0.000000      1.000000
  0.111111  0.111111  0.000000      4.000000
  0.222222  0.222222  0.000000      4.000000
  0.333333  0.333333  0.000000      4.000000
  0.444444  0.444444  0.000000      4.000000
  0.000000  0.222222  0.000000      4.000000
  0.111111  0.333333  0.000000      8.000000
  0.222222  0.444444  0.000000      8.000000
  0.333333  0.555556  0.000000      8.000000
  0.000000  0.444444  0.000000      4.000000
  0.111111  0.555556  0.000000      8.000000
  0.222222  0.666667  0.000000      8.000000
  0.000000  0.666667  0.000000      4.000000
  0.111111  0.777778  0.000000      8.000000
  0.000000  0.888889  0.000000      4.000000

 I would recommend the setting:
   dimension x,y,z NGX =    10 NGY =   10 NGZ =   71
 SYSTEM =  clean Ni(100) surface
 POSCAR =  fcc (100) surface

 Startparameter for this run:
   NWRITE =      2    write-flag & timer
   PREC   = medium    medium, high low
   ISTART =      0    job   : 0-new  1-cont  2-samecut
   ICHARG =      2    charge: 1-file 2-atom 10-const
   ISPIN  =      2    spin polarized calculation?
   LNONCOLLINEAR =      F non collinear calculations
   LSORBIT =      F    spin-orbit coupling
   INIWAV =      1    electr: 0-lowe 1-rand  2-diag
   LASPH  =      F    aspherical Exc in radial PAW
   METAGGA=      F    non-selfconsistent MetaGGA calc.

 Electronic Relaxation 1
   ENCUT  =  270.0 eV  19.84 Ry    4.45 a.u.   3.34  3.34 23.65*2*pi/ulx,y,z
   ENINI  =  270.0     initial cutoff
   ENAUG  =  544.6 eV  augmentation charge cutoff
   NELM   =     60;   NELMIN=  2; NELMDL= -5     # of ELM steps
   EDIFF  = 0.1E-05   stopping-criterion for ELM
   LREAL  =      F    real-space projection
   LCOMPAT=      F    compatible to vasp.4.4
   LREAL_COMPAT= F    compatible to vasp.4.5.1-3
   GGA_COMPAT  = T    GGA compatible to vasp.4.4-vasp.4.6
   LMAXPAW     = -100 max onsite density
   LMAXMIX     =    2 max onsite mixed and CHGCAR
   VOSKOWN=      0    Vosko Wilk Nusair interpolation
   ROPT   =    0.00000
 Ionic relaxation
   EDIFFG = 0.1E-04   stopping-criterion for IOM
   NSW    =    100    number of steps for IOM
   NBLOCK =      1;   KBLOCK =    100    inner block; outer block
   IBRION =      1    ionic relax: 0-MD 1-quasi-New 2-CG
   NFREE  =      0    steps in history (QN), initial steepest desc. (CG)
   ISIF   =      2    stress and relaxation
   IWAVPR =     11    prediction:  0-non 1-charg 2-wave 3-comb
   ISYM   =      2    0-nonsym 1-usesym 2-fastsym
   LCORR  =      T    Harris-Foulkes like correction to forces

   POTIM  =   0.80    time-step for ionic-motion
   TEIN   =    0.0    initial temperature
   TEBEG  =    0.0;   TEEND  =   0.0 temperature during run
   SMASS  =  -3.00    Nose mass-parameter (am)
   estimated Nose-frequenzy (Omega)   =  0.10E-29 period in steps =****** mass=  -0.142E-27a.u.
   NPACO  =    256;   APACO  = 16.0  distance and # of slots for P.C.
   PSTRESS=    0.0 pullay stress

  Mass of Ions in am
   POMASS =  58.69
  Ionic Valenz
   ZVAL   =  10.00
  Atomic Wigner-Seitz radii
   NELECT =      50.0000    total number of electrons
   NUPDOWN=      -1.0000    fix difference up-down

 DOS related values:
   EMIN   =  10.00;   EMAX   =-10.00  energy-range for DOS
   ISMEAR =     2;   SIGMA  =   0.20  broadening in eV -4-tet -1-fermi 0-gaus

 Electronic relaxation 2 (details)
   IALGO  =     68    algorithm
   LDIAG  =      T    sub-space diagonalisation
   IMIX   =      4    mixing-type and parameters
     AMIX     =   0.40;   BMIX     =  1.00
     AMIX_MAG =   1.60;   BMIX_MAG =  1.00
     AMIN     =   0.10
     WC   =   100.;   INIMIX=   1;  MIXPRE=   1

 Intra band minimization:
   WEIMIN = 0.0010     energy-eigenvalue tresh-hold
   EBREAK =  0.76E-08  absolut break condition
   DEPER  =   0.30     relativ break condition

   TIME   =   0.10     timestep for ELM

  volume/ion in A,a.u.               =      21.99       148.42
  Fermi-wavevector in a.u.,eV,Ry     =   1.258858 21.561476  1.584724

 Second variation
   LSECVAR=     F    do a second variation

 Write flags
   LWAVE  =      T    write WAVECAR
   LCHARG =      T    write CHGCAR
   LVTOT  =      F    write LOCPOT, local potential
   LELF   =      F    write electronic localiz. function (ELF)
   LORBIT =      0    0 simple, 1 ext, 2 COOP (PROOUT)

 Dipole corrections
   IDIPOL =      0    1-x, 2-y, 3-z
   LDIPOL =      F    correct potential

 quasi-Newton-method for relaxation of ions
   using selective dynamics as specified on POSCAR
   WARNING: If single coordinates had been selected the selection of coordinates
            is made according to the corresponding   d i r e c t   coordinates!
            Don't support selection of single cartesian coordinates -- sorry ... !
 charge density will be updated during run
 spin polarized calculation
 RMM-DIIS sequential band-by-band and
  variant of blocked Davidson during initial phase
 performe sub-space diagonalisation
    before iterative eigenvector-optimisation
 modified Broyden-mixing scheme, WC =      100.0
 initial mixing is a Kerker type mixing with AMIX =  0.4000 and BMIX =      1.0000
 Hartree-type preconditioning will be used
 using additional bands  8
 reciprocal scheme for non local part
 use partial core corrections
 calculate Harris-corrections to forces   (improved forces if not selfconsistent)
 use gradient corrections
 use of overlap-Matrix (Vanderbilt PP)
 Methfessel and Paxton  Order N= 2 SIGMA  =   0.20

  energy-cutoff  :      270.00
  volume of cell :      109.97
      direct lattice vectors                 reciprocal lattice vectors
     1.765000000  1.765000000  0.000000000     0.283286119  0.283286119  0.000000000
    -1.765000000  1.765000000  0.000000000    -0.283286119  0.283286119  0.000000000
     0.000000000  0.000000000 17.650000000     0.000000000  0.000000000  0.056657224

  length of vectors
     2.496086938  2.496086938 17.650000000     0.400627071  0.400627071  0.056657224

 k-points in units of 2pi/SCALE and weight: K-Points
   0.00000000  0.00000000  0.00000000       0.012
   0.11111111  0.11111111  0.00000000       0.049
   0.22222222  0.22222222  0.00000000       0.049
   0.33333333  0.33333333  0.00000000       0.049
   0.44444444  0.44444444  0.00000000       0.049
   0.00000000  0.22222222  0.00000000       0.049
   0.11111111  0.33333333  0.00000000       0.099
   0.22222222  0.44444444  0.00000000       0.099
   0.33333333  0.55555556  0.00000000       0.099
   0.00000000  0.44444444  0.00000000       0.049
   0.11111111  0.55555556  0.00000000       0.099
   0.22222222  0.66666667  0.00000000       0.099
   0.00000000  0.66666667  0.00000000       0.049
   0.11111111  0.77777778  0.00000000       0.099
   0.00000000  0.88888889  0.00000000       0.049

 k-points in reciprocal lattice and weights: K-Points
   0.00000000  0.00000000  0.00000000       0.012
   0.11111111  0.00000000  0.00000000       0.049
   0.22222222  0.00000000  0.00000000       0.049
   0.33333333  0.00000000  0.00000000       0.049
   0.44444444  0.00000000  0.00000000       0.049
   0.11111111  0.11111111  0.00000000       0.049
   0.22222222  0.11111111  0.00000000       0.099
   0.33333333  0.11111111  0.00000000       0.099
[...]
 Maximum number of reciprocal cells 2x 2x 9

----------------------------------------- Iteration    1(   1)  ---------------------------------------

 eigenvalue-minimisations  :  1980
 total energy-change (2. order) : 0.2608297E+03  (-0.1611258E+04)
 number of electron   50.0000000 magnetization    5.0000000
 augmentation part    50.0000000 magnetization    5.0000000

 Free energy of the ion-electron system (eV)
  alpha Z        PSCENC =       228.18410549
  Ewald energy   TEWEN  =      9231.00278662
  -1/2 Hartree   DENC   =    -14629.34389242
  -V(xc)+E(xc)   XCENC  =       156.29197857
  PAW double counting   =      4356.65054997    -4692.71830440
  entropy T*S    EENTRO =        -0.00130815
  eigenvalues    EBANDS =       213.60678630
  atomic energy  EATOM  =      5397.15695484
  free energy    TOTEN  =       260.82965682 eV

  energy without entropy =      260.83096497  energy(sigma->0) =      260.82998386

[...]

 eigenvalue-minimisations  :  1990
 total energy-change (2. order) :-0.2756126E+03  (-0.2623638E+03)
 number of electron   50.0000000 magnetization    5.0000000
 augmentation part    50.0000000 magnetization    5.0000000

[...]

 Broyden mixing:
  rms(total) = 0.17097E+01    rms(broyden)= 0.17086E+01
  rms(prec ) = 0.18879E+01
  weight for this iteration     100.00

[...]

 eigenvalues of (default mixing * dielectric matrix)
  average eigenvalue GAMMA=   0.2858
  0.2858

[...]

 average (electrostatic) potential at core
  the test charge radii are     0.9791
  (the norm of the test charge is              1.0000)
       1 -47.0847       2 -47.4148       3 -47.4215       4 -47.4148       5 -47.0847

 E-fermi :  -0.0629     XC(G=0):  -7.6268     alpha+bet : -5.8801
   add alpha+bet to get absolut eigen values

 spin component 1

 k-point   1 :       0.0000    0.0000    0.0000
  band No.  band energies     occupation
      1      -8.4905      1.00000
      2      -7.2816      1.00000
      3      -5.6642      1.00000
      4      -4.4862      1.00000
      5      -4.4442      1.00000
      6      -3.9800      1.00000
      7      -3.5856      1.00000
      8      -3.1217      1.00000
      9      -2.6768      1.00000
     10      -2.4435      1.00000
     11      -2.2678      1.00000
     12      -2.2678      1.00000
     13      -1.8614      1.00000
     14      -1.8614      1.00000
     15      -1.7510      1.00000
     16      -1.5093      1.00000
     17      -1.3131      1.00000
     18      -1.3030      1.00000
     19      -1.3030      1.00000
     20      -1.2034      1.00000
     21      -1.1713      1.00000
     22      -1.0314      1.00000
     23      -0.8004      0.99999
     24      -0.7942      0.99999
     25      -0.7942      0.99999
     26      -0.6257      0.99933
     27      -0.5642      0.99796
     28      -0.5303      0.99678
     29      -0.5303      0.99678
     30       0.4898      0.00082
     31       1.8330      0.00000
     32       4.8317      0.00000
     33       5.9720      0.00000

[...]

 soft charge-density along one line, spin component 1
         0         1         2         3         4         5         6         7         8         9
x    19.0351    0.6856   -0.7478   -0.0388    0.0555    0.0000
y    19.0351    0.6856   -0.7478   -0.0388    0.0555    0.0000
z    19.0351    3.7066   -0.0834    2.9001   -0.0427    1.7928    0.0551    0.8129    0.1293    0.2087
z     0.3214   -0.0556    0.0240   -0.1716    0.0110   -0.1777   -0.0142   -0.1148   -0.0202   -0.0706
z    -0.2724   -0.0358   -0.0033   -0.0088   -0.0006    0.0054   -0.0008    0.0151   -0.0008    0.0141
z     0.0609    0.0106    0.0022    0.0072   -0.0001    0.0052    0.0000
 total charge-density along one line
x    50.0000    5.5913   10.1862    0.4157   -0.0467   -0.0043    0.0167   -0.0016    0.0027   -0.0002
y    50.0000    5.5913   10.1862    0.4157   -0.0467   -0.0043    0.0167   -0.0016    0.0027   -0.0002
z    50.0000    9.8581   -0.0199    8.8567   -0.0295    7.3214    0.0510    5.7093    0.1328    4.3484
z    19.0397    3.2849    0.0409    2.3968    0.0170    1.6792   -0.0293    1.1758   -0.0651    0.7623
z     2.8766    0.4335   -0.0262    0.2019   -0.0052    0.0517   -0.0080    0.0203   -0.0189    0.0042
z    -0.0183   -0.0027   -0.0053   -0.0016   -0.0020   -0.0001   -0.0009    0.0072   -0.0006    0.0085
z     0.0383    0.0062    0.0002    0.0029    0.0001    0.0001    0.0000   -0.0020   -0.0000   -0.0023
z    -0.0101   -0.0016   -0.0001   -0.0006   -0.0000    0.0002   -0.0000    0.0008    0.0000    0.0008
z     0.0035    0.0005    0.0000    0.0002    0.0000   -0.0001   -0.0000   -0.0003   -0.0000   -0.0004
z    -0.0021

[...]

------------------------ aborting loop because EDIFF is reached ----------------------------------------

  FREE ENERGIE OF THE ION-ELECTRON SYSTEM (eV)
  free  energy   TOTEN  =       -25.557219 eV

  energy  without entropy=      -25.558020  energy(sigma->0) =      -25.557419

  FORCE on cell =-STRESS in cart. coord.  units (eV/reduce length):
  Direction    X        Y        Z        XY       YZ       ZX
  Alpha Z    228.18    228.18    228.18
  Ewald    12288.79  12288.79 -15346.58     -0.00      0.00      0.00
  Hartree  13794.06  13794.06 -13002.69     -0.00     -0.00     -0.00
  E(xc)     -275.68   -275.68   -276.15      0.00     -0.00      0.00
  Local   -26517.86 -26517.86  27911.74      0.00      0.00     -0.00
  n-local   -168.16   -170.31   -170.67     -8.06     -0.00     -0.00
  augment    259.21    259.21    261.26     -0.00     -0.00     -0.00
  Kinetic    382.76    393.99    392.15      7.44      0.00      0.00
  Total       -4.16     -4.16     -2.76      0.00      0.00      0.00
  in kB      -60.66    -60.66    -40.26      0.00      0.00      0.00

 VOLUME and BASIS-vectors are now :
  energy-cutoff  :      270.00
  volume of cell :      109.97
      direct lattice vectors                 reciprocal lattice vectors
     1.765000000  1.765000000  0.000000000     0.283286119  0.283286119  0.000000000
    -1.765000000  1.765000000  0.000000000    -0.283286119  0.283286119  0.000000000
     0.000000000  0.000000000 17.650000000     0.000000000  0.000000000  0.056657224

[...]

 FORCES acting on ions
    electron-ion (+dipol)            ewald-force                    non-local-force                 convergence-correction
   0.384E-13 0.930E-13 0.285E+04   0.737E-14 -.837E-14 -.285E+04   0.000E+00 0.000E+00 -.258E+01   -.138E-12 -.322E-13 0.145E-02
   0.225E-12 0.586E-12 0.145E+04   0.791E-14 -.217E-13 -.145E+04   0.000E+00 0.000E+00 -.896E-01   -.552E-13 0.411E-13 0.153E-02
   0.214E-12 -.954E-13 0.116E-02   0.837E-14 -.198E-13 -.580E-11   0.165E-23 0.827E-24 -.154E-02   -.710E-13 -.102E-13 -.145E-02
   0.141E-12 0.474E-12 -.145E+04   0.991E-14 -.229E-13 0.145E+04   0.000E+00 0.000E+00 0.903E-01   -.392E-13 0.507E-13 -.530E-02
   -.365E-12 -.280E-13 -.285E+04   0.110E-13 -.388E-13 0.285E+04   0.827E-24 0.827E-24 0.258E+01   0.657E-13 0.103E-12 -.275E-02
   0.254E-12 0.103E-11 0.533E-02   0.446E-13 -.112E-12 0.000E+00   0.248E-23 0.165E-23 0.155E-02   -.238E-12 0.153E-12 -.652E-02

 POSITION                                       TOTAL-FORCE (eV/Angst)
      0.00000      0.00000      0.00000         0.000000      0.000000      0.396964
      0.00000      1.76500      1.76500         0.000000      0.000000     -0.390076
      0.00000      0.00000      3.53000        -0.000000      0.000000     -0.001908
      0.00000      1.76500      5.29500         0.000000      0.000000      0.390752
      0.00000      0.00000      7.06000         0.000000      0.000000     -0.395732
    total drift:                                0.000000      0.000000      0.000364

 Quasi-Newton relaxation of ions (Broydens 2nd method)
  g(Force)  = 0.239E-01   g(Stress)= 0.000E+00

 Reset! Starting new Quasi-Newton update for ions

[...]

 d Force = 0.1419816E-01[ 0.452E-02, 0.239E-01]  d Energy = 0.1442680E-01-0.229E-03
 d Force =-0.4360941E+02[-0.441E+02,-0.432E+02]  d Ewald  =-0.4361454E+02 0.514E-02

[...]

 retain information from N=  1 steps
 eigenvalues of (default step * inverse Hessian matrix)
  average eigenvalue of G=   1.1902
 eigenvalue spectrum of G is  1.1902

[...]

 d Force = 0.1512301E-02[ 0.720E-04, 0.295E-02]  d Energy = 0.1524836E-02-0.125E-04
 d Force =-0.1043855E+03[-0.105E+03,-0.104E+03]  d Ewald  =-0.1043859E+03 0.340E-03

[...]

 d Force = 0.1079939E-03[-0.360E-04, 0.252E-03]  d Energy = 0.1103156E-03-0.232E-05
 d Force =-0.2017845E+02[-0.202E+02,-0.202E+02]  d Ewald  =-0.2017846E+02 0.852E-05

[...]

 eigenvalue-minimisations  :  1911
 total energy-change (2. order) :-0.3095504E-05  (-0.1138078E-05)
 number of electron   50.0000362 magnetization    3.0890492
 augmentation part    30.9546868 magnetization    2.9092085

[...]

 Broyden mixing:
  rms(total) = 0.11375E-02    rms(broyden)= 0.11319E-02
  rms(prec ) = 0.12688E-02
  weight for this iteration     100.00

 eigenvalues of (default mixing * dielectric matrix)
  average eigenvalue GAMMA=   0.2296
  0.6869  0.2312  0.0466  0.0730  0.1104

[...]

----------------------------------------- Iteration    6(   7)  ---------------------------------------

 eigenvalue-minimisations  :  1088
 total energy-change (2. order) : 0.1821363E-06  (-0.1189227E-06)
 number of electron   50.0000362 magnetization    3.0890541
 augmentation part    30.9546362 magnetization    2.9092971

 Free energy of the ion-electron system (eV)
  alpha Z        PSCENC =       228.18410549
  Ewald energy   TEWEN  =      9428.86269635
  -1/2 Hartree   DENC   =    -14781.88647855
  -V(xc)+E(xc)   XCENC  =       151.69758047
  PAW double counting   =      4544.37883085    -4887.07845221
  entropy T*S    EENTRO =         0.00026701
  eigenvalues    EBANDS =      -106.89002757
  atomic energy  EATOM  =      5397.15695484
  free energy    TOTEN  =       -25.57452333 eV

  energy without entropy =      -25.57479034  energy(sigma->0) =      -25.57459008

 average (electrostatic) potential at core
  the test charge radii are     0.9791
  (the norm of the test charge is              1.0000)
       1 -47.0878       2 -47.4139       3 -47.4093       4 -47.4676       5 -47.1269

 E-fermi :  -0.0634     XC(G=0):  -7.6052     alpha+bet : -5.8801
   add alpha+bet to get absolut eigen values

[...]

 spin component 2

[...]

 k-point  15 :       0.4444    0.4444    0.0000
  band No.  band energies     occupation
      1      -4.0570      1.00000
      2      -3.9562      1.00000
      3      -3.5722      1.00000
      4      -3.4106      1.00000
      5      -3.4025      1.00000
      6      -3.2059      1.00000
      7      -2.9811      1.00000
      8      -2.9227      1.00000
      9      -2.9028      1.00000
     10      -2.1529      1.00000
     11      -2.1110      1.00000
     12      -1.1441      1.00000
     13      -1.1000      1.00000
     14      -0.5816      0.99845
     15      -0.5168      0.99625
     16      -0.2377      1.04875
     17      -0.1682      0.95188
     18      -0.1199      0.78127
     19      -0.0960      0.66892
     20      -0.0127      0.24476
     21       0.0440      0.04156
     22       0.1440     -0.04975
     23       0.1894     -0.03171
     24       0.3992      0.00340
     25       0.4580      0.00147
     26       2.4916      0.00000
     27       3.7047      0.00000
     28       4.1748      0.00000
     29       5.4470      0.00000
     30       6.2097      0.00000
     31       7.7613      0.00000
     32       8.3657      0.00000
     33       9.5411      0.00000

[...]

 soft charge-density along one line, spin component 2
         0         1         2         3         4         5         6         7         8         9
x     0.1798    0.0853   -0.0446   -0.0018    0.0027    0.0000
y     0.1798    0.0853   -0.0446   -0.0018    0.0027    0.0000
z     0.1798    0.0339    0.0344    0.0660    0.0072    0.0731   -0.0050    0.0642    0.0061    0.0262
z     0.0905    0.0097   -0.0084   -0.0132    0.0025   -0.0189   -0.0028   -0.0159   -0.0062   -0.0148
z    -0.0757   -0.0160    0.0043   -0.0142    0.0033   -0.0002   -0.0007   -0.0019   -0.0010   -0.0009
z    -0.0036   -0.0005    0.0002   -0.0003    0.0002    0.0003    0.0000
 total charge-density along one line
x     3.0891    0.6314    0.9648    0.0486   -0.0246    0.0027    0.0014   -0.0003    0.0002   -0.0001
y     3.0891    0.6314    0.9648    0.0486   -0.0246    0.0027    0.0014   -0.0003    0.0002   -0.0001
z     3.0891    0.6104    0.0926    0.7329   -0.0082    0.6934    0.0772    0.4835    0.1615    0.3664
z     1.8405    0.3788   -0.0412    0.3528   -0.0293    0.1944    0.0627    0.0614    0.0624    0.0384
z     0.1538    0.0299    0.0063    0.0056    0.0091    0.0139   -0.0010   -0.0077   -0.0050   -0.0147
z    -0.0770   -0.0217    0.0095   -0.0206    0.0049    0.0016   -0.0033   -0.0014   -0.0021   -0.0015
z    -0.0045   -0.0007   -0.0000    0.0003   -0.0001   -0.0001    0.0003    0.0001    0.0002    0.0001
z     0.0001   -0.0001    0.0001   -0.0001    0.0000    0.0001   -0.0001   -0.0000   -0.0000    0.0000
z     0.0001    0.0001   -0.0000    0.0000   -0.0000   -0.0000    0.0000   -0.0000    0.0000   -0.0000
z    -0.0001

------------------------ aborting loop because EDIFF is reached ----------------------------------------

 d Force = 0.3131957E-05[ 0.777E-06, 0.549E-05]  d Energy = 0.4673764E-05-0.154E-05
 d Force = 0.4336754E+01[ 0.434E+01, 0.434E+01]  d Ewald  = 0.4336754E+01-0.135E-07

  FREE ENERGIE OF THE ION-ELECTRON SYSTEM (eV)
  free  energy   TOTEN  =       -25.574523 eV

  energy  without entropy=      -25.574790  energy(sigma->0) =      -25.574590

  FORCE on cell =-STRESS in cart. coord.  units (eV/reduce length):
  Direction    X        Y        Z        XY       YZ       ZX
  Alpha Z    228.18    228.18    228.18
  Ewald    12495.49  12495.49 -15562.12     -0.00      0.00      0.00
  Hartree  13995.26  13995.26 -13208.46     -0.00     -0.00     -0.00
  E(xc)     -275.79   -275.79   -276.28      0.00      0.00     -0.00
  Local   -26926.00 -26926.00  28332.77     -0.00      0.00      0.00
  n-local   -167.65   -169.84   -170.10     -8.02      0.00     -0.00
  augment    259.19    259.19    261.31      0.00      0.00      0.00
  Kinetic    383.04    394.40    392.62      7.54     -0.00     -0.00
  Total       -3.70     -3.70     -2.08      0.00      0.00      0.00
  in kB      -53.89    -53.89    -30.24      0.00      0.00      0.00

 VOLUME and BASIS-vectors are now :
  energy-cutoff  :      270.00
  volume of cell :      109.97
      direct lattice vectors                 reciprocal lattice vectors
     1.765000000  1.765000000  0.000000000     0.283286119  0.283286119  0.000000000
    -1.765000000  1.765000000  0.000000000    -0.283286119  0.283286119  0.000000000
     0.000000000  0.000000000 17.650000000     0.000000000  0.000000000  0.056657224

  length of vectors
     2.496086938  2.496086938 17.650000000     0.400627071  0.400627071  0.056657224

 FORCES acting on ions
    electron-ion (+dipol)            ewald-force                    non-local-force                 convergence-correction
   0.172E-12 0.610E-14 0.286E+04   0.755E-14 -.843E-14 -.286E+04   0.436E-25 0.598E-25 -.258E+01   0.170E-13 0.176E-13 -.364E-01
   -.175E-12 -.143E-12 0.146E+04   0.809E-14 -.223E-13 -.146E+04   -.414E-24 0.414E-24 -.114E+00   0.477E-13 0.824E-13 -.658E-02
   -.142E-12 -.585E-13 0.118E+02   0.546E-14 -.428E-13 -.119E+02   -.124E-23 0.414E-24 0.552E-01   -.386E-13 0.142E-13 0.116E-01
   0.944E-05 0.944E-05 -.145E+04   0.205E-13 -.174E-13 0.145E+04   0.827E-24 0.827E-24 0.133E+00   -.293E-13 0.780E-13 0.386E-01
   -.479E-04 -.479E-04 -.289E+04   0.291E-14 -.206E-13 0.289E+04   0.414E-24 0.000E+00 0.234E+01   -.126E-13 0.921E-13 0.640E-01
   -.384E-04 -.384E-04 0.992E-01   0.446E-13 -.112E-12 0.000E+00   -.370E-24 0.171E-23 -.166E+00   -.158E-13 0.284E-12 0.711E-01

 POSITION                                       TOTAL-FORCE (eV/Angst)
      0.00000      0.00000      0.00000         0.000000      0.000000      0.398756
      0.00000      1.76500      1.76500         0.000000      0.000000     -0.393048
      0.00000      0.00000      3.53000         0.000000      0.000000     -0.006319
      0.00000      1.76500      5.30196         0.000000      0.000000     -0.000021
      0.00000      0.00000      6.98746         0.000000      0.000000      0.000632
    total drift:                               -0.000038     -0.000038      0.004794

 Quasi-Newton relaxation of ions (Broydens 2nd method)
  g(Force)  = 0.308E-07   g(Stress)= 0.000E+00

 retain information from N=  1 steps
 eigenvalues of (default step * inverse Hessian matrix)
  average eigenvalue of G=   2.3655
 eigenvalue spectrum of G is  2.3655

 reached required accuracy - stopping structural energy minimisation
 writing wavefunctions