 INCAR:
 POTCAR:    PAW Ni

 POTCAR:    PAW Ni
   VRHFIN =Ni:

   TITEL  = PAW Ni
   POMASS =   58.690; ZVAL   =   10.000    mass and valenz
   ENMAX  =  269.561; ENMIN  =  202.171 eV
   QCUT   =   -4.451; QGAM   =    8.902    optimization parameters

   Description
     l     E      TYP  RCUT    TYP  RCUT
     2   .000     23  2.300
     2   .000     23  2.300
     0   .000     23  2.300
     0   .000     23  2.300
     1  -.200     23  2.300
     1   .000     23  2.300
     3   .000      7   .000

  PAW Ni                                :

 POSCAR: fcc (100) surface
  positions in direct lattice
  velocities in cartesian coordinates

 ion  position               nearest neighbor table
   1  0.000  0.000  0.000-   2 2.50   2 2.50   2 2.50   2 2.50
   2  0.500  0.500  0.100-   1 2.50   3 2.50   1 2.50   3 2.50   1 2.50   3 2.50   1 2.50   3 2.50

   3  0.000  0.000  0.200-   2 2.50   2 2.50   2 2.50   2 2.50   4 2.50   4 2.50   4 2.50   4 2.50

[...]

   5  0.000  0.000  0.396-   4 2.44   4 2.44   4 2.44   4 2.44

  LATTYP: Found a simple tetragonal cell.
 ALAT       =     2.4960869376
 C/A-ratio  =     7.0710678119

  Lattice vectors:

 A1 = (   1.7650000000,   1.7650000000,   0.0000000000)
 A2 = (  -1.7650000000,   1.7650000000,   0.0000000000)
 A3 = (   0.0000000000,   0.0000000000,  17.6500000000)
 Subroutine PRICEL returns:
 Original cell was already a primitive cell.

Analysis of symmetry for initial positions (statically):

 Routine SETGRP: Setting up the symmetry group for a
 simple tetragonal supercell.

 Subroutine GETGRP returns: Found  8 space group operations
 (whereof  8 operations were pure point group operations)
 out of a pool of 16 trial point group operations.

The static configuration has the point symmetry C_4v.

Analysis of symmetry for dynamics (positions and initial velocities):

 Subroutine DYNSYM returns: Found  8 space group operations
 (whereof  8 operations were pure point group operations)
 out of a pool of  8 trial space group operations
 (whereof  8 operations were pure point group operations)
 and found also     1 'primitive' translations

The dynamic configuration has the point symmetry C_4v.

Analysis of constrained symmetry for selective dynamics:

 Subroutine DYNSYM returns: Found  8 space group operations
 (whereof  8 operations were pure point group operations)
 out of a pool of  8 trial space group operations
 (whereof  8 operations were pure point group operations)
 and found also     1 'primitive' translations

The constrained configuration has the point symmetry C_4v.

Analysis of magnetic symmetry:

 Subroutine MAGSYM returns: Found  8 space group operations
 (whereof  8 operations were pure point group operations)
 out of a pool of  8 trial space group operations
 (whereof  8 operations were pure point group operations)
 and found also     1 'primitive' translations

The magnetic configuration has the point symmetry C_4v.

 KPOINTS: K-Points

Automatic generation of k-mesh.

 Subroutine IBZKPT returns following result:

 Found     15 irreducible k-points:

 Following reciprocal coordinates:
            Coordinates               Weight
  0.000000  0.000000  0.000000      1.000000
  0.111111  0.000000  0.000000      4.000000
  0.222222  0.000000  0.000000      4.000000
  0.333333  0.000000  0.000000      4.000000
  0.444444  0.000000  0.000000      4.000000
  0.111111  0.111111  0.000000      4.000000
  0.222222  0.111111  0.000000      8.000000
  0.333333  0.111111  0.000000      8.000000
  0.444444  0.111111  0.000000      8.000000
  0.222222  0.222222  0.000000      4.000000
  0.333333  0.222222  0.000000      8.000000
  0.444444  0.222222  0.000000      8.000000
  0.333333  0.333333  0.000000      4.000000
  0.444444  0.333333  0.000000      8.000000
  0.444444  0.444444  0.000000      4.000000

 Following cartesian coordinates:
            Coordinates               Weight
  0.000000  0.000000  0.000000      1.000000
  0.111111  0.111111  0.000000      4.000000
  0.222222  0.222222  0.000000      4.000000
  0.333333  0.333333  0.000000      4.000000
  0.444444  0.444444  0.000000      4.000000
  0.000000  0.222222  0.000000      4.000000
  0.111111  0.333333  0.000000      8.000000
  0.222222  0.444444  0.000000      8.000000
  0.333333  0.555556  0.000000      8.000000
  0.000000  0.444444  0.000000      4.000000
  0.111111  0.555556  0.000000      8.000000
  0.222222  0.666667  0.000000      8.000000
  0.000000  0.666667  0.000000      4.000000
  0.111111  0.777778  0.000000      8.000000
  0.000000  0.888889  0.000000      4.000000

 TETIRR: Found    111 inequivalent tetrahedra from      486

 I would recommend the setting:
   dimension x,y,z NGX =    10 NGY =   10 NGZ =   71
 SYSTEM =  clean (100) Ni surface
 POSCAR =  fcc (100) surface

 Startparameter for this run:
   NWRITE =      2    write-flag & timer
   PREC   = medium    medium, high low
   ISTART =      1    job   : 0-new  1-cont  2-samecut
   ICHARG =      0    charge: 1-file 2-atom 10-const
   ISPIN  =      2    spin polarized calculation?
   LNONCOLLINEAR =      F non collinear calculations
   LSORBIT =      F    spin-orbit coupling
   INIWAV =      1    electr: 0-lowe 1-rand  2-diag
   LASPH  =      F    aspherical Exc in radial PAW
   METAGGA=      F    non-selfconsistent MetaGGA calc.

 Electronic Relaxation 1
   ENCUT  =  270.0 eV  19.84 Ry    4.45 a.u.   3.34  3.34 23.65*2*pi/ulx,y,z
   ENINI  =  270.0     initial cutoff
   ENAUG  =  544.6 eV  augmentation charge cutoff
   NELM   =     60;   NELMIN=  2; NELMDL=  0     # of ELM steps
   EDIFF  = 0.1E-03   stopping-criterion for ELM
   LREAL  =      F    real-space projection
   LCOMPAT=      F    compatible to vasp.4.4
   LREAL_COMPAT= F    compatible to vasp.4.5.1-3
   GGA_COMPAT  = T    GGA compatible to vasp.4.4-vasp.4.6
   LMAXPAW     = -100 max onsite density
   LMAXMIX     =    2 max onsite mixed and CHGCAR
   VOSKOWN=      0    Vosko Wilk Nusair interpolation
   ROPT   =    0.00000
 Ionic relaxation
   EDIFFG = 0.1E-02   stopping-criterion for IOM
   NSW    =      0    number of steps for IOM
   NBLOCK =      1;   KBLOCK =      1    inner block; outer block
   IBRION =     -1    ionic relax: 0-MD 1-quasi-New 2-CG
   NFREE  =      0    steps in history (QN), initial steepest desc. (CG)
   ISIF   =      2    stress and relaxation
   IWAVPR =      0    prediction:  0-non 1-charg 2-wave 3-comb
   ISYM   =      2    0-nonsym 1-usesym 2-fastsym
   LCORR  =      T    Harris-Foulkes like correction to forces

   POTIM  =   0.50    time-step for ionic-motion
   TEIN   =    0.0    initial temperature
   TEBEG  =    0.0;   TEEND  =   0.0 temperature during run
   SMASS  =  -3.00    Nose mass-parameter (am)
   estimated Nose-frequenzy (Omega)   =  0.10E-29 period in steps =****** mass=  -0.142E-27a.u.
   NPACO  =    256;   APACO  = 16.0  distance and # of slots for P.C.
   PSTRESS=    0.0 pullay stress

  Mass of Ions in am
   POMASS =  58.69
  Ionic Valenz
   ZVAL   =  10.00
  Atomic Wigner-Seitz radii
   NELECT =      50.0000    total number of electrons
   NUPDOWN=      -1.0000    fix difference up-down

 DOS related values:
   EMIN   =  10.00;   EMAX   =-10.00  energy-range for DOS
   ISMEAR =    -5;   SIGMA  =   0.20  broadening in eV -4-tet -1-fermi 0-gaus

 Electronic relaxation 2 (details)
   IALGO  =     38    algorithm
   LDIAG  =      T    sub-space diagonalisation
   IMIX   =      4    mixing-type and parameters
     AMIX     =   0.40;   BMIX     =  1.00
     AMIX_MAG =   1.60;   BMIX_MAG =  1.00
     AMIN     =   0.10
     WC   =   100.;   INIMIX=   1;  MIXPRE=   1

 Intra band minimization:
   WEIMIN = 0.0000     energy-eigenvalue tresh-hold
   EBREAK =  0.76E-06  absolut break condition
   DEPER  =   0.30     relativ break condition

   TIME   =   0.10     timestep for ELM

  volume/ion in A,a.u.               =      21.99       148.42
  Fermi-wavevector in a.u.,eV,Ry     =   1.258858 21.561476  1.584724

 Second variation
   LSECVAR=     F    do a second variation

 Write flags
   LWAVE  =      T    write WAVECAR
   LCHARG =      T    write CHGCAR
   LVTOT  =      F    write LOCPOT, local potential
   LELF   =      F    write electronic localiz. function (ELF)
   LORBIT =     11    0 simple, 1 ext, 2 COOP (PROOUT)

 Dipole corrections
   IDIPOL =      0    1-x, 2-y, 3-z
   LDIPOL =      F    correct potential

 Static calculation
 charge density will be updated during run
 spin polarized calculation
 Variant of blocked Davidson
 Davidson routine will perform the subspace rotation
 performe sub-space diagonalisation
    after iterative eigenvector-optimisation
 modified Broyden-mixing scheme, WC =      100.0
 initial mixing is a Kerker type mixing with AMIX =  0.4000 and BMIX =      1.0000
 Hartree-type preconditioning will be used
 using additional bands  8
 reciprocal scheme for non local part
 use partial core corrections
 calculate Harris-corrections to forces   (improved forces if not selfconsistent)
 use gradient corrections
 use of overlap-Matrix (Vanderbilt PP)
 Fermi weights with tetrahedron method with Bloechl corrections

  energy-cutoff  :      270.00
  volume of cell :      109.97
      direct lattice vectors                 reciprocal lattice vectors
     1.765000000  1.765000000  0.000000000     0.283286119  0.283286119  0.000000000
    -1.765000000  1.765000000  0.000000000    -0.283286119  0.283286119  0.000000000
     0.000000000  0.000000000 17.650000000     0.000000000  0.000000000  0.056657224

  length of vectors
     2.496086938  2.496086938 17.650000000     0.400627071  0.400627071  0.056657224

 old parameters found on file WAVECAR:
  energy-cutoff  :      270.00
  volume of cell :      109.97
      direct lattice vectors                 reciprocal lattice vectors
     1.765000000  1.765000000  0.000000000     0.283286119  0.283286119  0.000000000
    -1.765000000  1.765000000  0.000000000    -0.283286119  0.283286119  0.000000000
     0.000000000  0.000000000 17.650000000     0.000000000  0.000000000  0.056657224

  length of vectors

 k-points in units of 2pi/SCALE and weight: K-Points
   0.00000000  0.00000000  0.00000000       0.012
   0.11111111  0.11111111  0.00000000       0.049
   0.22222222  0.22222222  0.00000000       0.049
   0.33333333  0.33333333  0.00000000       0.049
   0.44444444  0.44444444  0.00000000       0.049
   0.00000000  0.22222222  0.00000000       0.049
   0.11111111  0.33333333  0.00000000       0.099
   0.22222222  0.44444444  0.00000000       0.099
   0.33333333  0.55555556  0.00000000       0.099
   0.00000000  0.44444444  0.00000000       0.049
   0.11111111  0.55555556  0.00000000       0.099
   0.22222222  0.66666667  0.00000000       0.099
   0.00000000  0.66666667  0.00000000       0.049
   0.11111111  0.77777778  0.00000000       0.099
   0.00000000  0.88888889  0.00000000       0.049

 k-points in reciprocal lattice and weights: K-Points
   0.00000000  0.00000000  0.00000000       0.012
   0.11111111  0.00000000  0.00000000       0.049
   0.22222222  0.00000000  0.00000000       0.049
   0.33333333  0.00000000  0.00000000       0.049
   0.44444444  0.00000000  0.00000000       0.049
   0.11111111  0.11111111  0.00000000       0.049
   0.22222222  0.11111111  0.00000000       0.099
   0.33333333  0.11111111  0.00000000       0.099
   0.44444444  0.11111111  0.00000000       0.099
   0.22222222  0.22222222  0.00000000       0.049
   0.33333333  0.22222222  0.00000000       0.099
   0.44444444  0.22222222  0.00000000       0.099
   0.33333333  0.33333333  0.00000000       0.049
   0.44444444  0.33333333  0.00000000       0.099
   0.44444444  0.44444444  0.00000000       0.049

 position of ions in fractional coordinates (direct lattice)
   0.00000000  0.00000000  0.00000000
   0.50000000  0.50000000  0.10000000
   0.00000000  0.00000000  0.20000000
   0.50000000  0.50000000  0.30039442
   0.00000000  0.00000000  0.39589016

 position of ions in cartesian coordinates  (Angst):
   0.00000000  0.00000000  0.00000000
   0.00000000  1.76500000  1.76500000
   0.00000000  0.00000000  3.53000000
   0.00000000  1.76500000  5.30196147
   0.00000000  0.00000000  6.98746140

 k-point  1 :  0.00000.00000.0000  plane waves:   1131
 k-point  2 :  0.11110.00000.0000  plane waves:   1131
 k-point  3 :  0.22220.00000.0000  plane waves:   1109
 k-point  4 :  0.33330.00000.0000  plane waves:   1109
 k-point  5 :  0.44440.00000.0000  plane waves:   1104
 k-point  6 :  0.11110.11110.0000  plane waves:   1121
 k-point  7 :  0.22220.11110.0000  plane waves:   1104
 k-point  8 :  0.33330.11110.0000  plane waves:   1106
 k-point  9 :  0.44440.11110.0000  plane waves:   1120
 k-point 10 :  0.22220.22220.0000  plane waves:   1113
 k-point 11 :  0.33330.22220.0000  plane waves:   1108
 k-point 12 :  0.44440.22220.0000  plane waves:   1109
 k-point 13 :  0.33330.33330.0000  plane waves:   1099
 k-point 14 :  0.44440.33330.0000  plane waves:   1088
 k-point 15 :  0.44440.44440.0000  plane waves:   1088

 maximum number of plane-waves:   1131
 maximal index in each direction:
   IXMAX=  3   IYMAX=  3   IZMAX= 23
   IXMIN= -3   IYMIN= -3   IZMIN=-23

 WARNING: wrap around error must be expected set NGX to  14
 WARNING: wrap around error must be expected set NGY to  14
 WARNING: wrap around error must be expected set NGZ to  94
Broyden mixing: mesh for mixing (old mesh)
   NGX =  7   NGY =  7   NGZ = 47
  (NGX  = 18   NGY  = 18   NGZ  =140)
 gives a total of   2303 points
 charge density for first step will be calculated from the start-wavefunctions

 Maximum index for augmentation-charges  1627 (set IRDMAX)

 initial charge from wavefunction
 First call to EWALD:  gamma=   0.370
 Maximum number of real-space cells 5x 5x 1
 Maximum number of reciprocal cells 2x 2x 9

----------------------------------------- Iteration    1(   1)  ---------------------------------------

 BZINTS: Fermi energy: -0.053577; 50.000000 electrons
         Band energy:-106.711699;  BLOECHL correction: -0.111820

 eigenvalue-minimisations  :  1420
 total energy-change (2. order) :-0.2557141E+02  (-0.4023304E-04)
 number of electron   50.0000369 magnetization    3.0800633
 augmentation part    30.9635455 magnetization    2.9214858

 Broyden mixing:
  rms(total) = 0.26659E-01    rms(broyden)= 0.26398E-01
  rms(prec ) = 0.30764E-01
  weight for this iteration     100.00

 Free energy of the ion-electron system (eV)
  alpha Z        PSCENC =       228.18410549
  Ewald energy   TEWEN  =      9428.86269635
  -1/2 Hartree   DENC   =    -14782.06206576
  -V(xc)+E(xc)   XCENC  =       151.69796818
  PAW double counting   =      4544.33244566    -4887.03181812
  entropy T*S    EENTRO =         0.00000000
  eigenvalues    EBANDS =      -106.71169906
  atomic energy  EATOM  =      5397.15695484
  free energy    TOTEN  =       -25.57141242 eV

  energy without entropy =      -25.57141242  energy(sigma->0) =      -25.57141242

[...]

 eigenvalues of (default mixing * dielectric matrix)
  average eigenvalue GAMMA=   0.0601
  0.0601

[...]

 eigenvalue-minimisations  :  2220
 total energy-change (2. order) : 0.2117930E-01  (-0.1207168E-01)
 number of electron   50.0000370 magnetization    3.0781511
 augmentation part    30.9635877 magnetization    2.9055058

[...]

 eigenvalue-minimisations  :  2360
 total energy-change (2. order) :-0.3013257E-03  (-0.1463721E-02)
 number of electron   50.0000368 magnetization    3.0762825
 augmentation part    30.9565957 magnetization    2.9075364

[...]

 Broyden mixing:
  rms(total) = 0.13379E-01    rms(broyden)= 0.13341E-01
  rms(prec ) = 0.14927E-01
  weight for this iteration     100.00

 eigenvalues of (default mixing * dielectric matrix)
  average eigenvalue GAMMA=   0.2992
  1.0595  0.0449  0.0741  0.1785  0.1389

[...]

----------------------------------------- Iteration    1(   7)  ---------------------------------------

[...]

 eigenvalue-minimisations  :  1251
 total energy-change (2. order) : 0.5259935E-04  (-0.3471514E-04)
 number of electron   50.0000369 magnetization    3.0670325
 augmentation part    30.9598917 magnetization    2.8997683

 Free energy of the ion-electron system (eV)
  alpha Z        PSCENC =       228.18410549
  Ewald energy   TEWEN  =      9428.86269635
  -1/2 Hartree   DENC   =    -14782.17067544
  -V(xc)+E(xc)   XCENC  =       151.69537115
  PAW double counting   =      4544.68850668    -4887.36712403
  entropy T*S    EENTRO =         0.00000000
  eigenvalues    EBANDS =      -106.62054181
  atomic energy  EATOM  =      5397.15695484
  free energy    TOTEN  =       -25.57070678 eV

  energy without entropy =      -25.57070678  energy(sigma->0) =      -25.57070678

 average (electrostatic) potential at core
  the test charge radii are     0.9791
  (the norm of the test charge is              1.0000)
       1 -47.0882       2 -47.4051       3 -47.3955       4 -47.4618       5 -47.1243

 E-fermi :  -0.0557     XC(G=0):  -7.5948     alpha+bet : -5.8801
   add alpha+bet to get absolut eigen values

 spin component 1

 k-point   1 :       0.0000    0.0000    0.0000
  band No.  band energies     occupation
      1      -8.5275      1.00000
      2      -7.3489      1.00000
      3      -5.6769      1.00000
      4      -4.5333      1.00000
      5      -4.4503      1.00000
      6      -4.0050      1.00000
      7      -3.6463      1.00000
      8      -3.1335      1.00000
      9      -2.6567      1.00000
     10      -2.4205      1.00000
     11      -2.2841      1.00000
     12      -2.2841      1.00000
     13      -1.9116      1.00000
     14      -1.9116      1.00000
     15      -1.7402      1.00000
     16      -1.4654      1.00000
     17      -1.3178      1.00000
     18      -1.3178      1.00000
     19      -1.2796      1.00000
     20      -1.2346      1.00000
     21      -1.1688      1.00000
     22      -1.0746      1.00000
     23      -0.8037      1.00000
     24      -0.7914      1.00000
     25      -0.7914      1.00000
     26      -0.6304      1.00000
     27      -0.5605      1.00000
     28      -0.5177      1.00000
     29      -0.5177      1.02980
     30       0.5644      0.00000
     31       1.9246      0.00000
     32       4.8938      0.00000
     33       5.9651      0.00000

[...]

 spin component 2

[...]

 k-point  15 :       0.4444    0.4444    0.0000
  band No.  band energies     occupation
      1      -4.0524      1.00000
      2      -3.9460      1.00000
      3      -3.5696      1.00000
      4      -3.4052      1.00000
      5      -3.3973      1.00000
      6      -3.2089      1.00000
      7      -2.9791      1.00000
      8      -2.9195      1.00000
      9      -2.9034      1.00000
     10      -2.1520      1.00000
     11      -2.1100      1.00000
     12      -1.1430      1.00000
     13      -1.0983      1.00000
     14      -0.5790      1.00000
     15      -0.5125      1.00000
     16      -0.2385      1.00000
     17      -0.1626      1.00000
     18      -0.1200      1.00000
     19      -0.0953      1.00000
     20      -0.0120      0.48597
     21       0.0437      0.16198
     22       0.1460     -0.00696
     23       0.1982     -0.01650
     24       0.3917      0.00000
     25       0.4487      0.00000
     26       2.4972      0.00000
     27       3.7108      0.00000
     28       4.1757      0.00000
     29       5.4477      0.00000
     30       6.2148      0.00000
     31       7.7662      0.00000
     32       8.3691      0.00000
     33       9.5504      0.00000

 soft charge-density along one line, spin component 1
         0         1         2         3         4         5         6         7         8         9
x    19.0401    0.6854   -0.7463   -0.0396    0.0566    0.0000
y    19.0401    0.6854   -0.7463   -0.0396    0.0566    0.0000
z    19.0401    3.7462   -0.2428    3.1261   -0.2029    1.7689    0.2226    0.6344    0.2176    0.1942
z     0.3119   -0.0603    0.0544   -0.2124    0.0337   -0.1590   -0.0661   -0.0571   -0.0563   -0.0619
z    -0.2607   -0.0513    0.0077   -0.0110   -0.0022    0.0045    0.0071    0.0045    0.0070    0.0124
z     0.0578    0.0168   -0.0043    0.0116   -0.0006    0.0022    0.0000
 total charge-density along one line
x    50.0000    5.5917   10.1882    0.4134   -0.0388   -0.0051    0.0167   -0.0016    0.0028   -0.0002
y    50.0000    5.5917   10.1882    0.4134   -0.0388   -0.0051    0.0167   -0.0016    0.0028   -0.0002
z    50.0000    9.9872   -0.4604    9.5352   -0.5600    7.2549    0.8102    4.6256    1.0228    3.9510
z    18.9049    3.8554   -0.7762    3.1623   -0.3795    1.5680    0.4453    0.6480    0.2791    0.6561
z     2.8131    0.5824   -0.1842    0.3129   -0.0438    0.0399    0.0196    0.0062   -0.0164    0.0041
z    -0.0114   -0.0086   -0.0008   -0.0016   -0.0023   -0.0028    0.0036    0.0004    0.0046    0.0082
z     0.0350    0.0115   -0.0042    0.0050   -0.0001    0.0001   -0.0015    0.0004   -0.0015   -0.0025
z    -0.0087   -0.0033    0.0011   -0.0008   -0.0002    0.0001    0.0009   -0.0004    0.0006    0.0011
z     0.0028    0.0012   -0.0001   -0.0001    0.0004   -0.0000   -0.0006    0.0003   -0.0002   -0.0007
z    -0.0016

 soft charge-density along one line, spin component 2
         0         1         2         3         4         5         6         7         8         9
x     0.1673    0.0832   -0.0458   -0.0018    0.0023    0.0000
y     0.1673    0.0832   -0.0458   -0.0018    0.0023    0.0000
z     0.1673    0.0331    0.0283    0.0598    0.0097    0.0712   -0.0028    0.0612    0.0058    0.0252
z     0.0878    0.0100   -0.0098   -0.0135    0.0016   -0.0196   -0.0031   -0.0167   -0.0066   -0.0150
z    -0.0756   -0.0160    0.0040   -0.0145    0.0032   -0.0004   -0.0009   -0.0020   -0.0011   -0.0009
z    -0.0038   -0.0006    0.0002   -0.0004    0.0002    0.0003    0.0000
 total charge-density along one line
x     3.0670    0.6122    0.9459    0.0466   -0.0275    0.0027    0.0014   -0.0003    0.0002   -0.0001
y     3.0670    0.6122    0.9459    0.0466   -0.0275    0.0027    0.0014   -0.0003    0.0002   -0.0001
z     3.0670    0.6072    0.0884    0.7153   -0.0093    0.6731    0.0744    0.4736    0.1589    0.3622
z     1.8091    0.3742   -0.0410    0.3456   -0.0299    0.1895    0.0607    0.0584    0.0601    0.0374
z     0.1490    0.0286    0.0055    0.0032    0.0088    0.0141   -0.0015   -0.0087   -0.0057   -0.0150
z    -0.0776   -0.0221    0.0092   -0.0211    0.0048    0.0015   -0.0035   -0.0015   -0.0022   -0.0016
z    -0.0046   -0.0007   -0.0000    0.0003   -0.0001   -0.0001    0.0003    0.0001    0.0002    0.0001
z     0.0002   -0.0000    0.0001   -0.0001    0.0000    0.0001   -0.0001   -0.0000   -0.0000    0.0000
z     0.0000    0.0000   -0.0000    0.0000   -0.0000   -0.0000    0.0000   -0.0000    0.0000   -0.0000
z    -0.0001

------------------------ aborting loop because EDIFF is reached ----------------------------------------

 total charge

# of ion     s       p       d       tot
  1        0.466   0.326   8.334   9.126
  2        0.490   0.480   8.328   9.299
  3        0.494   0.482   8.335   9.311
  4        0.500   0.500   8.345   9.345
  5        0.477   0.346   8.343   9.167
tot        2.427   2.134  41.686  46.246

 magnetization (x)

[...]

  FREE ENERGIE OF THE ION-ELECTRON SYSTEM (eV)
  free  energy   TOTEN  =       -25.570707 eV

  energy  without entropy=      -25.570707  energy(sigma->0) =      -25.570707

  FORCE on cell =-STRESS in cart. coord.  units (eV/reduce length):
  Direction    X        Y        Z        XY       YZ       ZX
  Alpha Z    228.18    228.18    228.18
  Ewald    12495.49  12495.49 -15562.12     -0.00     -0.00      0.00
  Hartree  13996.95  13996.95 -13209.86     -0.00     -0.00     -0.00
  E(xc)     -275.79   -275.79   -276.28      0.00     -0.00     -0.00
  Local   -26927.42 -26927.42  28334.27     -0.00      0.00      0.00
  n-local   -167.62   -170.12   -170.26     -8.05      0.00      0.00
  augment    259.11    259.11    261.35      0.00     -0.00     -0.00
  Kinetic    383.12    394.33    392.80      7.60     -0.00     -0.00
  Total       -3.63     -3.63     -1.92      0.00      0.00      0.00
  in kB      -52.82    -52.82    -27.94      0.00      0.00      0.00

 VOLUME and BASIS-vectors are now :
  energy-cutoff  :      270.00
  volume of cell :      109.97
      direct lattice vectors                 reciprocal lattice vectors
     1.765000000  1.765000000  0.000000000     0.283286119  0.283286119  0.000000000
    -1.765000000  1.765000000  0.000000000    -0.283286119  0.283286119  0.000000000
     0.000000000  0.000000000 17.650000000     0.000000000  0.000000000  0.056657224

  length of vectors
     2.496086938  2.496086938 17.650000000     0.400627071  0.400627071  0.056657224

 FORCES acting on ions
    electron-ion (+dipol)            ewald-force                    non-local-force                 convergence-correction
   -.251E-12 -.331E-12 0.286E+04   0.755E-14 -.843E-14 -.286E+04   -.620E-24 -.207E-24 -.257E+01   -.296E-13 0.478E-13 -.361E-01
   -.834E-12 0.265E-12 0.146E+04   0.809E-14 -.223E-13 -.146E+04   0.000E+00 0.000E+00 -.169E+00   0.103E-13 0.466E-13 -.670E+00
   -.203E-12 -.320E-12 0.128E+02   0.546E-14 -.428E-13 -.119E+02   0.000E+00 0.000E+00 0.495E-01   -.350E-13 0.313E-13 -.937E+00
   0.945E-05 0.945E-05 -.145E+04   0.340E-14 -.666E-14 0.145E+04   -.414E-24 0.000E+00 0.195E+00   -.121E-13 0.436E-13 0.315E-01
   -.479E-04 -.479E-04 -.289E+04   0.201E-13 -.314E-13 0.289E+04   -.124E-23 -.414E-24 0.236E+01   0.221E-13 0.556E-13 0.561E+00
   -.385E-04 -.385E-04 0.118E+01   0.446E-13 -.112E-12 0.909E-12   -.227E-23 -.620E-24 -.134E+00   -.443E-13 0.225E-12 -.105E+01

 POSITION                                       TOTAL-FORCE (eV/Angst)
      0.00000      0.00000      0.00000         0.000000      0.000000      0.389635
      0.00000      1.76500      1.76500         0.000000      0.000000     -0.387774
      0.00000      0.00000      3.53000         0.000000      0.000000     -0.003257
      0.00000      1.76500      5.30196         0.000000      0.000000     -0.000261
      0.00000      0.00000      6.98746         0.000000      0.000000      0.001658
    total drift:                               -0.000038     -0.000038     -0.000426

 mean value of Nose-termostat <S>:     1.000 mean value of <T> :     0.000
 mean temperature <T/S>/<1/S>  :     0.000

 writing wavefunctions

 total charge

[...]

 magnetization (x)

# of ion     s       p       d       tot
  1       -0.003  -0.019   0.710   0.688
  2       -0.008  -0.023   0.614   0.583
  3       -0.007  -0.024   0.614   0.583
  4       -0.008  -0.023   0.608   0.577
  5       -0.004  -0.019   0.700   0.677
tot       -0.029  -0.108   3.245   3.108

 BZINTS: Fermi energy: -0.055695; 50.000000 electrons
         Band energy:-106.620542;  BLOECHL correction: -0.111340